39 41 40 38 35 34 33 37 36 32 30 31 29 28 27 26 25 24 21 22 23 12 13 14 15 16 11 10 9 7 8 17 18 19 20 568 569 570 474 473 472 471 470 469 468 467 466 571 573 572 6 5 0 4 1 2 3 455 456 457 458 459 460 461 462 463 464 465 496 497 498 501 500 499 452 453 451 312 311 310 309 308 505 504 503 502 517 516 515 514 513 512 511 510 509 506 507 508 302 301 303 307 304 306 305 313 316 314 315 377 378 379 380 381 447 445 444 443 442 446 448 449 450 441 440 439 454 438 437 436 435 434 433 432 430 429 428 431 382 425 424 426 427 423 422 421 420 419 417 418 410 411 412 356 355 354 353 352 413 414 416 415 351 350 349 348 347 345 346 362 363 361 358 357 359 360 401 402 403 400 399 407 408 406 405 404 409 384 383 385 386 387 388 389 390 392 391 393 394 397 398 364 365 367 368 369 370 372 371 396 395 375 376 374 373 322 323 324 325 326 327 328 329 366 342 343 344 341 340 339 338 337 336 335 334 283 284 285 286 287 280 281 282 279 278 277 276 290 289 288 333 332 331 330 291 292 275 274 273 272 269 293 294 295 296 270 268 271 267 297 321 320 317 318 319 298 266 265 264 263 262 261 260 259 258 299 300 257 256 255 253 254 252 251 250 249 248 241 242 243 244 245 247 246 238 239 240 237 236 235 234 232 233 530 529 528 527 526 523 522 521 520 519 518 495 494 524 525 493 492 491 490 486 487 535 534 488 489 531 532 533 231 230 229 228 227 189 225 226 190 191 192 186 188 187 178 177 176 540 538 539 537 536 484 485 483 482 481 480 479 478 477 476 475 567 566 565 564 563 562 561 560 549 548 545 546 547 544 543 541 542 103 104 105 106 118 119 120 121 122 117 116 115 114 131 113 112 111 110 107 109 108 173 174 175 172 170 171 169 180 181 179 182 183 185 184 193 219 218 220 221 222 224 223 217 216 215 214 213 212 211 210 209 194 195 196 197 205 206 207 208 198 199 200 201 202 204 203 165 164 166 167 163 168 162 161 160 159 156 155 154 153 157 158 145 146 147 148 152 149 150 151 142 143 144 141 140 139 138 137 136 135 134 133 132 130 129 128 127 126 125 124 123 71 70 69 68 67 66 65 72 73 74 75 76 64 62 63 61 60 59 81 80 79 78 77 88 89 94 95 96 97 98 99 100 102 101 551 550 559 558 557 556 552 553 554 555 91 92 93 90 87 86 85 82 57 58 56 55 83 53 54 52 51 84 50 49 48 47 46 45 44 43 42